(declare-const a Real)
(declare-const b Real)
(declare-const c Real)
(assert (= (* a b c) 1))
(assert (> a 0))
(assert (> b 0))
(assert (> c 0))
(assert (not (<= (+ 3 (* -4 (pow a 3)) (* -4 (pow a 4)) (* -2 (pow (* (+ (* 4 (pow b 3)) (* 4 (pow c 3))) (+ (* 4 (pow b 4)) (* 4 (pow c 4)))) (/ 1 2))) (* 3 a) (* 3 b) (* 3 c) (* 3 a b) (* 3 a c) (* 3 b c) (* 3 a b c)) 0)))
(check-sat)
(get-model)
(exit)